26288 25464 25408 24907 23394 23779 23160 22771 22489 22384 21892 21214 20770 20338 20124 19996 19660 19536 19344 19107 18796 18370 17976 17828 17903 17517 17292 17156 16757 16447 16402 16217 16061 15920 15768 15602 15320 15404 15246 15037 14935 14810 14718 14704 14509 14514 14437 14286 14146 14026 13927 13846 13803 13638 13703 13541 13562 13499 13390 13378 13340 13259 13130 13061 13112 12962 12937 12834 12714 12686 12689 12685 12598 12552 12514 12480 12559 12470 12446 12409 12367 12375 12274 12243 12236 12250 12244 12196 12077 12113 12068 12125 12052 12057 12032 12003 11979 11977 11878 11846 11857 11783 11776 11723 11719 11686 11712 11628 11663 11616 11584 11646 11481 11416 11523 11532 11406 11470 11464 11435 11438 11435 11414 11397 11390 11356 11372 11333 11262 11373 11380 11336 11260 11312 11265 11258 11318 11229 11161 11152 11107 11162 11161 11175 11115 11134 11180 11152 11162 11155 11084 11142 11139 11110 11031 11018 11071 11037 11034 11048 11032 10999 11130 10874 10937 10969 11087 10965 11084 10940 10940 10981 10984 10979 10971 10977 10972 11017 10972 10965 11043 11019 11018 10963 10959 10969 10896 10928 10871 10878 10943 10900 10846 10963 10943 10907 10847 10927 10881 10873 10830 10784 10698 10761 10646 10686 10588 10711 10659 10727 10721 10723 10702 10699 10679 10649 10639 10592 10552 10539 10477 10357 10580 10559 10367 10279 10366 10310 10216 10128 10043 9866 9765 9706 9642 9584 9561 9506 9460 9403 9317 9256 9220 9162 9134 9072 9009 8952 8902 8853 8782 8675 8621 8610 8570 8474 8423 8369 8323 8272 8246 8193 8152 8115 8079 8047 8038 7992 7960 7940 7919 7885 7865 7824 7778 7758 7743 7723 7701 7678 7647 7619 7602 7578 7556 7542 7523 7515 7499 7483 7463 7452 7428 7416 7381 7369 7337 7321 7302 7279 7257 7236 7218 7196 7181 7162 7147 7135 7120 7096 7074 7062 7041 7039 7027 6999 6994 6977 6958 6946 6938 6923 6915 6905 6897 6886 6877 6871 6867 6862 6858 6852 6842 6832 6831 6814 6814 6799 6788 6775 6756 6755 6746 6718 6716 6712 6706 6701 6671 6664 6625 6620 6617 6608 6600 6590 6582 6577 6574 6553 6533 6512 6496 6480 6460 6457 6443 6416 6410 6405 6388 6360 6357 6351 6342 6328 6318 6302 6296 6289 6262 6246 6233 6229 6221 6218 6211 6203 6190 6179 6160 6148 6132 6122 6121 6119 6113 6110 6107 6105 6099 6096 6086 6077 6069 6064 6062 6059 6054 6054 6052 6050 6049 6044 6043 6038 6037 6031 6023 6021 6016 6012 6009 5994 5986 5974 5960 5954 5952 5945 5941 5934 5931 5926 5917 5914 5913 5911 5910 5906 5904 5899 5895 5888 5880 5870 5859 5857 5845 5840 5834 5826 5815 5812 5798 5791 5784 5773 5770 5758 5757 5757 5754 5754 5752 5751 5747 5747 5745 5745 5723 5723 5721 5716 5714 5710 5708 5697 5697 5697 5691 5691 5691 5691 5690 5684 5678 5677 5676 5675 5673 5669 5667 5666 5663 5659 5658 5658 5658 5657 5657 5657 5654 5654 5654 5654 5654 5654 5645 5645 5645 5644 5644 5640 5640 5635 5635 5629 5629 5629 5628 5626 5622 5615 5615 5610 5590 5588 5570 5554 5554 5554 5554 5551 5551 5523 5520 5516 5514 5507 5502 5498 5493 5487 5483 5481 5473 5473 5458 5451 5448 5446 5445 5437 5436 5422 5412 5404 5402 5397 5396 5388 5362 5362 5335 5331 5331 5329 5325 5325 5323 5321 5320 5320 5320 5318 5299 5299 5297 5287 5285 5281 5279 5276 5274 5272 5266 5257 5257 5252 5245 5244 5244 5244 5238 5238 5236 5236 5234 5232 5232 5230 5230 5228 5226 5226 5223 5219 5216 5215 5215 5213 5212 5211 5210 5209 5209 5208 5207 5206 5206 5205 5204 5204 5204 5204 5203 5203 5203 5190 5190 5188 5181 5180 5175 5149 5149 5142 5141 5141 5137 5134 5129 5124 5122 5122 5122 5122 5122 5122 5122 5120 5116 5113 5104 5094 5085 5079 5079 5079 5079 5078 5072 5072 5071 5068 5068 5068 5068 5068 5068 5068 5068 5066 5066 5066 5066 5066 5064 5064 5064 5063 5063 5063 5063 5063 5063 5063 5063 5063 5063 5063 5063 5063 5063 5063 5063 5063 5063 5062 5057 5057 5057 5053 5053 5048 5046 5046 5044 5044 5044 5044 5039 5039 5039 5035 5035 5035 5035 5035 5035 5035 5035 5035 5035 5035 5031 5031 5029 5029 5029 5029 5028 5028 5028 5028 5028 5023 5023 5023 5023 5023 5023 5023 5023 5023 5023 5023 5018 5018 5016 5016 5016 5016 4968 4947 4947 4947 4947 4947 4946 4946 4946 4945 4945 4945 4945 4945 4945 4945 4945 4945 4945 4945 4945 4945 4942 4942 4942 4942 4942 4942 4942 4942 4941 4941 4941 4941 4941 4938 4937 4937 4937 4937 4937 4937 4937 4937 4930 4930 4925 4925 4925 4925 4925 4925 4925 4925 4925 4925 4925 4925 4925 4925 4925 4925 4925 4925 4925 4925 4925 4925 4925 4925 4925 4925 4925 4921 4921 4921 4921 4921 4921 4921 4921 4921 4921 4921 4921 4920 4920 4919 4919 4919 4919 4919 4919 4919 4919 4919 4919 4919 4919 4919 4919 4919 4919 4918 4918 4917 4916 4916 4915 4915 4912 4912 4912 4912 4912 4912 4912 4912 4912 4908 4908 4908 4907 4907 4906 4906 4905 4901 4897 4897 4889 4889 4882 4882 4880 4880 4880 4880 4875 4875 4875 4875 4874 4874 4870 4870 4870 4867 4867 4867 4867 4867 4866 4866 4866 4866 4866 4866 4866 4866 4866 4866 4866 4866 4866 4866 4866 4866 4866 4866 4866 4866 4857 4857 4857 4857 4857 4853 4853 4847 4847 4847 4845 4845 4845 4845 4845 4845 4845 4845 4844 4844 4844 4844 4844 4844 4836 4836 4836 4836 4836 4836 4833 4833 4833 4833 4833 4833 4833 4833 4833 4833 4833 4827 4827 4827 4827 4827 4825 4825 4825 4825 4825 4825 4825 4825 4825 4824 4824 4823 4823 4823 4823 4822 4822 4822 4822 4822 4819 4819 4819 4819 4819 4819 4819 4819 4819 4819 4819 4819 4819 4819 4819 4818 4818 4818 4818 4818 4818 4818 4818 4818 4818 4818 4818 4818 4817 4817 4806 4806 4806 4804 4804 4804 4804 4804 4804 4804 4804 4804 4804 4804 4804 4804 4798 4798 4798 4798 4798 4798 4798 4798 4798 4798 4798 4798 4798 4798 4798 4798 4798 4798 4798 4798 4798 4798 4798 4798 4798 4798 4798 4798 4798 4798 4798 4798 4798 4798 4798 4798 4798 4790 4790 4790 4790 4790 4790 4790 4790 4790 4790 4790 4790 4790 4790 4790 4790 4790 4790 4790 4790 4790 4790 4790 4790 4788 4788 4788 4788 4788 4788 4788 4788 4788 4787 4787 4787 4785 4783 4783 4783 4783 4783 4783 4783 4783 4780 4780 4780 4780 4780 4780 4780 4780 4780 4780 4780 4779 4779 4779 4779 4779 4779 4779 4779 4779 4779 4779 4779 4779 4779 4779 4779 4779 4779 4779 4779 4779 4779 4779 4779 4779 4779 4779 4778 4778 4778 4778 4778 4778 4778 4778 4778 4778 4778 4778 4778 4778 4778 4778 4778 4778 4778 4778 4778 4778 4778 4778 4778 4776 4776 4776 4776 4776 4776 4776 4776 4776 4776 4776 4776 4776 4776 4776 4776 4776 4776 4776 4776 4776 4776 4776 4776 4776 4764 4764 4764 4764 4764 4764 4764 4764 4764 4764 4764 4764 4764 4764 4764 4764 4764 4764 4764 4764 4764 4764 4764 4764 4764 4764 4764 4764 4764 4764 4764 4764 4764 4764 4764 4764 4764 4764 4764 4764 4764 4764 4764 4764 4764 4764 4764 4764 4764 4764 4764 4764 4764 4764 4764 4764 4764 4764 4764 4764 4764 4764 4763 4763 4763 4763 4763 4763 4763 4763 4763 4763 4763 4763 4763 4763 4763 4763 4763 4763 4763 4763 4763 4763 4763 4763 4763 4763 4763 4763 4763 4763 4763 4763 4763 4763 4763 4763 4763 4763 4763 4763 4763 4763 4763 4763 4763 4763 4763 4763 4763 4763 4763 4763 4763 4763 4763 4763 4763 4763 4763 4763 4763 4763 4763 4763 4763 4763 4763 4763 4763 4763 4763 4763 4763 4763 4763 4763 4763 4763 4763 4763 4763 4763 4763 4763 4763 4763 4763 4763 4763 4763 4763 4763 4763 4763 4763 4763 4763 4763 4763 4763 4763 4763 4763 4763 4763 4763 4763 4763 4763 4763 4763 4763 4763 4763 4763 4763 4763 4763 4763 4763 4763 4763 4763 4763 4763 4763 4763 4763 4763 4763 4763 4763 4763 4763 4763 4763 4763 4763 4763 4763 4763 4763 4763 4763 4763 4763 4763 4763 4763 4763 4763 4763 4763 4763 4763 4763 4763 4763 4763 4763 4763 4763 4763 4763 4763 4763 4763 4763 4763 4763 4763 4763 4763 4763 4763 4763 4763 4763 4763 4763 4763 4763 4763 4763 4763 4763 4763 4763 4763 4763 4763 4763 4763 4763 4763 4763 4763 4763 4763 4763 4763 4763 4763 4763 4763 4763 4763 4763 4763 4763 4763 4763 4763 4763 4763 4763 4763 4763 4763 4763 4763 4763 4763 4763 4763 4763 4763 4763 4763 4763 4763 4763 4763 4763 4763 4763 4763 4763 4763 4763 4763 4763 4763 4763 4763 4763 4763 4763 4763 4763 4763 4763 4763 4763 4763 4763 4763 4763 4763 4763 4763 4763 4763 4763 4763 4763 4763 4763 4763 4763 4763 4763 4763 4763 4763 4763 4763 4763 4763 4763 4763 4763 4763 4763 4763 4763 4763 4763 4763 4763 4763 4763 4763 4763 4763 4763 4763 4763 4763 4763 4763 4763 4763 4763 4763 4763 4763 4763 4763 4763 4763 4763 4763 4763 4763 4763 4763 4763 4763 4763 4763 4763 4763 4763 4763 4763 4763 4763 4763 4763 4763 4763 4763 4763 4763 4763 4763 4763 4763 4763 4763 4763 4763 4763 4763 4763 4763 4763 4763 4763 4763 4763 4763 4763 4763 4763 4763 4763 4763 4763 4763 4763 4763 4763 4763 4763 4763 4763 4763 4763 4763 4763 4763 4763 4763 4763 4763 4763 4763 4763 4763 4763 4763 4763 4763 4763 4763 4763 4763 4763 4763 4763 4763 4763 4763 4763 4763 4763 4763 4763 4763 4763 4763 4763 4763 4763 4763 4763 4763 4763 4763 4763 4763 4763 4763 4763 4763 4763 4763 4763 4763 4763 4763 4763 4763 4763 4763 4763 4763 4763 4763 4763 4763 4763 4763 4763 4763 4763 4763 4763 4763 4763 4763 4763 4763 4763 4763 4763 4763 4763 4763 4763 4763 4763 4763 4763 4763 4763 4763 4763 4763 4763 4763 4763 4763 4763 4763 4763 4763 4763 4763 4763 4763 4763 4763 4763 4763 4763 4763 4763 4763 4763 4763 4763 4763 4763 4763 4763 4763 4763 4763 4763 4763 4763 4763 4763 4763 4763 4763 4763 4763 
16314 15419 14970 14407 13631 13136 12629 12235 12034 11491 11391 10996 10280 9733 9519 9253 8979 8802 8487 8222 7856 7472 7219 7008 6803 6592 6328 6145 5902 5503 5450 5298 5127 4891 4748 4618 4486 4401 4245 4115 3931 3812 3777 3665 3551 3495 3447 3358 3251 3138 3100 2971 2895 2832 2762 2623 2613 2565 2515 2441 2407 2314 2255 2207 2172 2121 2062 2014 1945 1917 1883 1842 1803 1772 1726 1679 1641 1609 1579 1534 1520 1486 1442 1423 1403 1379 1352 1325 1298 1257 1225 1208 1168 1127 1114 1089 1058 1032 991 954 933 910 894 869 843 843 815 808 794 787 777 763 742 734 714 703 690 680 657 655 645 644 633 622 589 552 528 527 527 509 497 487 483 479 472 468 461 456 439 433 432 425 424 400 399 396 384 377 372 370 345 343 342 342 332 332 331 328 324 322 319 317 311 305 302 300 296 293 289 280 280 275 270 270 269 265 263 247 247 240 239 232 231 231 230 229 217 216 216 214 205 203 203 197 197 197 197 164 128 128 126 105 102 98 98 93 93 72 72 71 67 64 64 36 33 30 6 6 5 5 5 5 4 4 4 4 3 0 0 0 0 0 0 0 0 0 0 0 0 0 0 0 0 0 0 0 0 0 0 0 0 0 0 0 0 0 0 0 0 0 0 0 0 0 0 0 0 0 0 0 0 0 0 0 0 0 0 0 0 0 0 0 0 0 0 0 0 0 0 0 0 0 0 0 0 0 0 0 0 0 0 0 0 0 0 0 0 0 0 0 0 0 0 0 0 0 0 0 0 0 0 0 0 0 0 0 0 0 0 0 0 0 0 0 0 0 0 0 0 0 0 0 0 0 0 0 0 0 0 0 0 0 0 0 0 0 0 0 0 0 0 0 0 0 0 0 0 0 0 0 0 0 0 0 0 0 0 0 0 0 0 0 0 0 0 0 0 0 0 0 0 0 0 0 0 0 0 0 0 0 0 0 0 0 0 0 0 0 0 0 0 0 0 0 0 0 0 0 0 0 0 0 0 0 0 0 0 0 0 0 0 0 0 0 0 0 0 0 0 0 0 0 0 0 0 0 0 0 0 0 0 0 0 0 0 0 0 0 0 0 0 0 0 0 0 0 0 0 0 0 0 0 0 0 0 0 0 0 0 0 0 0 0 0 0 0 0 0 0 0 0 0 0 0 0 0 0 0 0 0 0 0 0 0 0 0 0 0 0 0 0 0 0 0 0 0 0 0 0 0 0 0 0 0 0 0 0 0 0 0 0 0 0 0 0 0 0 0 0 0 0 0 0 0 0 0 0 0 0 0 0 0 0 0 0 0 0 0 0 0 0 0 0 0 0 0 0 0 0 0 0 0 0 0 0 0 0 0 0 0 0 0 0 0 0 0 0 0 0 0 0 0 0 0 0 0 0 0 0 0 0 0 0 0 0 0 0 0 0 0 0 0 0 0 0 0 0 0 0 0 0 0 0 0 0 0 0 0 0 0 0 0 0 0 0 0 0 0 0 0 0 0 0 0 0 0 0 0 0 0 0 0 0 0 0 0 0 0 0 0 0 0 0 0 0 0 0 0 0 0 0 0 0 0 0 0 0 0 0 0 0 0 0 0 0 0 0 0 0 0 0 0 0 0 0 0 0 0 0 0 0 0 0 0 0 0 0 0 0 0 0 0 0 0 0 0 0 0 0 0 0 0 0 0 0 0 0 0 0 0 0 0 0 0 0 0 0 0 0 0 0 0 0 0 0 0 0 0 0 0 0 0 0 0 0 0 0 0 0 0 0 0 0 0 0 0 0 0 0 0 0 0 0 0 0 0 0 0 0 0 0 0 0 0 0 0 0 0 0 0 0 0 0 0 0 0 0 0 0 0 0 0 0 0 0 0 0 0 0 0 0 0 0 0 0 0 0 0 0 0 0 0 0 0 0 0 0 0 0 0 0 0 0 0 0 0 0 0 0 0 0 0 0 0 0 0 0 0 0 0 0 0 0 0 0 0 0 0 0 0 0 0 0 0 0 0 0 0 0 0 0 0 0 0 0 0 0 0 0 0 0 0 0 0 0 0 0 0 0 0 0 0 0 0 0 0 0 0 0 0 0 0 0 0 0 0 0 0 0 0 0 0 0 0 0 0 0 0 0 0 0 0 0 0 0 0 0 0 0 0 0 0 0 0 0 0 0 0 0 0 0 0 0 0 0 0 0 0 0 0 0 0 0 0 0 0 0 0 0 0 0 0 0 0 0 0 0 0 0 0 0 0 0 0 0 0 0 0 0 0 0 0 0 0 0 0 0 0 0 0 0 0 0 0 0 0 0 0 0 0 0 0 0 0 0 0 0 0 0 0 0 0 0 0 0 0 0 0 0 0 0 0 0 0 0 0 0 0 0 0 0 0 0 0 0 0 0 0 0 0 0 0 0 0 0 0 0 0 0 0 0 0 0 0 0 0 0 0 0 0 0 0 0 0 0 0 0 0 0 0 0 0 0 0 0 0 0 0 0 0 0 0 0 0 0 0 0 0 0 0 0 0 0 0 0 0 0 0 0 0 0 0 0 0 0 0 0 0 0 0 0 0 0 0 0 0 0 0 0 0 0 0 0 0 0 0 0 0 0 0 0 0 0 0 0 0 0 0 0 0 0 0 0 0 0 0 0 0 0 0 0 0 0 0 0 0 0 0 0 0 0 0 0 0 0 0 0 0 0 0 0 0 0 0 0 0 0 0 0 0 0 0 0 0 0 0 0 0 0 0 0 0 0 0 0 0 0 0 0 0 0 0 0 0 0 0 0 0 0 0 0 0 0 0 0 0 0 0 0 0 0 0 0 0 0 0 0 0 0 0 0 0 0 0 0 0 0 0 0 0 0 0 0 0 0 0 0 0 0 0 0 0 0 0 0 0 0 0 0 0 0 0 0 0 0 0 0 0 0 0 0 0 0 0 0 0 0 0 0 0 0 0 0 0 0 0 0 0 0 0 0 0 0 0 0 0 0 0 0 0 0 0 0 0 0 0 0 0 0 0 0 0 0 0 0 0 0 0 0 0 0 0 0 0 0 0 0 0 0 0 0 0 0 0 0 0 0 0 0 0 0 0 0 0 0 0 0 0 0 0 0 0 0 0 0 0 0 0 0 0 0 0 0 0 0 0 0 0 0 0 0 0 0 0 0 0 0 0 0 0 0 0 0 0 0 0 0 0 0 0 0 0 0 0 0 0 0 0 0 0 0 0 0 0 0 0 0 0 0 0 0 0 0 0 0 0 0 0 0 0 0 0 0 0 0 0 0 0 0 0 0 0 0 0 0 0 0 0 0 0 0 0 0 0 0 0 0 0 0 0 0 0 0 0 0 0 0 0 0 0 0 0 0 0 0 0 0 0 0 0 0 0 0 0 0 0 0 0 0 0 0 0 0 0 0 0 0 0 0 0 0 0 0 0 0 0 0 0 0 0 0 0 0 0 0 0 0 0 0 0 0 0 0 0 0 0 0 0 0 0 0 0 0 0 0 0 0 0 0 0 0 0 0 0 0 0 0 0 0 0 0 0 0 0 0 0 0 0 0 0 0 0 0 0 0 0 0 0 0 0 0 0 0 0 0 0 0 0 0 0 0 0 0 0 0 0 0 0 0 0 0 0 0 0 0 0 0 0 0 0 0 0 0 0 0 0 0 0 0 0 0 0 0 0 0 0 0 0 0 0 0 0 0 0 0 0 0 0 0 0 0 0 0 0 0 0 0 0 0 0 0 0 0 0 0 0 0 0 0 0 0 0 0 0 0 0 0 0 0 0 0 0 0 0 0 0 0 0 0 0 0 0 0 0 0 0 0 0 0 0 0 0 0 0 0 0 0 0 0 0 0 0 0 0 0 0 0 0 0 0 0 0 0 0 0 0 0 0 0 0 0 0 0 0 0 0 0 0 0 0 0 0 0 0 0 0 0 0 0 0 0 0 0 0 0 0 0 0 0 0 0 0 0 0 0 0 0 0 0 0 0 0 0 0 0 0 0 0 0 0 0 0 0 0 0 0 0 0 0 0 0 0 0 0 0 0 0 0 0 0 0 